471
548
587
589
542
571
603
476
545
747
289
288
343
242
265
229
245
324
317
304
155
167
163
142
195
281
283
257
273
258
76
92
88
92
79
254
251
264
256
230
33
30
32
32
60
148
364
816
1928
4304
70
72
81
72
74
5
5
5
6
5
30
34
30
32
31
16
16
17
17
16
195
173
187
185
190
74
72
65
66
62
471
548
587
589
542
571
603
476
545
747
289
288
343
242
265
229
245
324
317
304
155
167
163
142
195
281
283
257
273
258
76
92
88
92
79
254
251
264
256
230
33
30
32
32
60
148
364
816
1928
4304
70
72
81
72
74
5
5
5
6
5
30
34
30
32
31
16
16
17
17
16
195
173
187
185
190
74
72
65
66
62
471
548
587
589
542
571
603
476
545
747
289
288
343
242
265
229
245
324
317
304
155
167
163
142
195
281
283
257
273
258
76
92
88
92
79
254
251
264
256
230
33
30
32
32
60
148
364
816
1928
4304
70
72
81
72
74
5
5
5
6
5
30
34
30
32
31
16
16
17
17
16
195
173
187
185
190
74
72
65
66
62
471
548
587
589
542
571
603
476
545
747
289
288
343
242
265
229
245
324
317
304
155
167
163
142
195
281
283
257
273
258
76
92
88
92
79
254
251
264
256
230
33
30
32
32
60
148
364
816
1928
4304
70
72
81
72
74
5
5
5
6
5
30
34
30
32
31
16
16
17
17
16
195
173
187
185
190
74
72
65
66
62
